36753
0 0 1 0 1 0 1 0 0 0 1 0 0 1 0 0 1 1 1 0 0 0 0 1 1 1 0 0 1 1 
18 16 2 16 2 6 2 10 18 28 4 28 23 13 16 18 13 13 10 16 18 16 23 24 23 16 10 28 29 2 6 4 4 16 10 6 29 10 24 16 18 16 6 29 13 4 13 2 10 17 24 16 24 2 10 6 18 10 18 25 29 17 25 10 13 25 17 17 28 29 18 6 6 10 23 23 13 17 29 24 23 10 10 25 4 23 16 2 16 18 28 6 25 25 2 13 16 6 17 28 28 10 25 18 4 24 4 24 10 16 29 4 18 6 25 10 28 25 17 13 29 25 28 4 16 16 24 25 29 17 28 24 25 13 23 29 10 13 28 10 25 16 28 25 25 17 24 2 18 25 24 17 23 17 13 29 2 16 13 13 13 25 23 24 23 18 2 4 13 16 2 13 16 17 4 2 2 10 29 13 10 16 24 25 6 10 28 23 10 2 2 2 6 29 25 6 16 16 23 10 